Route #1: 1 51 9 81 33 79 50 
Route #2: 6 59 5 84 17 45 83 60 89 
Route #3: 12 68 3 77 76 28 
Route #4: 13 87 97 95 94 
Route #5: 18 8 46 36 49 64 11 62 88 
Route #6: 20 66 71 65 35 34 78 29 24 80 
Route #7: 23 67 39 25 55 54 
Route #8: 26 4 56 75 72 21 40 
Route #9: 27 53 
Route #10: 31 10 63 90 32 30 70 69 
Route #11: 52 7 19 47 48 82 
Route #12: 58 2 57 42 14 43 15 41 22 74 73 
Route #13: 61 16 86 38 44 91 98 
Route #14: 92 37 100 85 93 99 96 
Cost 1067
